NAME 
ROWS
 N  OBJ
 L  ULC[0]  
 L  ULC[1]  
 L  ULC[2]  
 L  ULC[3]  
 L  ULC[4]  
 L  LLC[0]  
 L  LLC[1]  
 L  LLC[2]  
 L  LLC[3]  
 L  LLC[4]  
COLUMNS
    MARKER    'MARKER'                 'INTORG'
    X[0]      OBJ       4
    X[0]      ULC[0]    44
    X[0]      ULC[1]    73
    X[0]      ULC[2]    73
    X[0]      ULC[3]    83
    X[0]      ULC[4]    53
    X[0]      LLC[0]    75
    X[0]      LLC[1]    74
    X[0]      LLC[2]    75
    X[0]      LLC[3]    69
    X[0]      LLC[4]    95
    X[1]      OBJ       12
    X[1]      ULC[0]    63
    X[1]      ULC[1]    34
    X[1]      ULC[2]    31
    X[1]      ULC[3]    32
    X[1]      ULC[4]    72
    X[1]      LLC[0]    96
    X[1]      LLC[1]    29
    X[1]      LLC[2]    79
    X[1]      LLC[3]    44
    X[1]      LLC[4]    73
    X[2]      OBJ       9
    X[2]      ULC[0]    71
    X[2]      ULC[1]    36
    X[2]      ULC[2]    77
    X[2]      ULC[3]    64
    X[2]      ULC[4]    20
    X[2]      LLC[0]    98
    X[2]      LLC[1]    58
    X[2]      LLC[2]    98
    X[2]      LLC[3]    96
    X[2]      LLC[4]    20
    X[3]      OBJ       -30
    X[3]      ULC[0]    12
    X[3]      ULC[1]    49
    X[3]      ULC[2]    74
    X[3]      ULC[3]    36
    X[3]      ULC[4]    74
    X[3]      LLC[0]    68
    X[3]      LLC[1]    73
    X[3]      LLC[2]    23
    X[3]      LLC[3]    59
    X[3]      LLC[4]    67
    X[4]      OBJ       -4
    X[4]      ULC[0]    97
    X[4]      ULC[1]    1
    X[4]      ULC[2]    87
    X[4]      ULC[3]    71
    X[4]      ULC[4]    40
    X[4]      LLC[0]    64
    X[4]      LLC[1]    61
    X[4]      LLC[2]    45
    X[4]      LLC[3]    54
    X[4]      LLC[4]    55
    X[5]      OBJ       46
    X[5]      ULC[0]    45
    X[5]      ULC[1]    91
    X[5]      ULC[2]    91
    X[5]      ULC[3]    3
    X[5]      ULC[4]    26
    X[5]      LLC[0]    53
    X[5]      LLC[1]    84
    X[5]      LLC[2]    5
    X[5]      LLC[3]    92
    X[5]      LLC[4]    61
    X[6]      OBJ       -30
    X[6]      ULC[0]    66
    X[6]      ULC[1]    2
    X[6]      ULC[2]    35
    X[6]      ULC[3]    82
    X[6]      ULC[4]    57
    X[6]      LLC[0]    30
    X[6]      LLC[1]    30
    X[6]      LLC[2]    53
    X[6]      LLC[3]    75
    X[6]      LLC[4]    16
    X[7]      OBJ       -7
    X[7]      ULC[1]    25
    X[7]      ULC[2]    1
    X[7]      ULC[3]    22
    X[7]      ULC[4]    92
    X[7]      LLC[0]    41
    X[7]      LLC[1]    44
    X[7]      LLC[2]    34
    X[7]      LLC[3]    8
    X[7]      LLC[4]    8
    X[8]      OBJ       -43
    X[8]      ULC[0]    35
    X[8]      ULC[1]    62
    X[8]      ULC[2]    84
    X[8]      ULC[3]    87
    X[8]      ULC[4]    19
    X[8]      LLC[0]    90
    X[8]      LLC[1]    62
    X[8]      LLC[2]    73
    X[8]      LLC[3]    94
    X[8]      LLC[4]    78
    X[9]      OBJ       -42
    X[9]      ULC[0]    76
    X[9]      ULC[1]    60
    X[9]      ULC[2]    6
    X[9]      ULC[3]    49
    X[9]      ULC[4]    84
    X[9]      LLC[0]    55
    X[9]      LLC[1]    79
    X[9]      LLC[2]    68
    X[9]      LLC[4]    7
    Y[0]      OBJ       25
    Y[0]      ULC[0]    42
    Y[0]      ULC[1]    35
    Y[0]      ULC[3]    58
    Y[0]      ULC[4]    65
    Y[0]      LLC[0]    67
    Y[0]      LLC[1]    48
    Y[0]      LLC[2]    65
    Y[0]      LLC[3]    95
    Y[0]      LLC[4]    100
    Y[1]      OBJ       -19
    Y[1]      ULC[0]    24
    Y[1]      ULC[1]    15
    Y[1]      ULC[2]    51
    Y[1]      ULC[3]    39
    Y[1]      ULC[4]    18
    Y[1]      LLC[1]    62
    Y[1]      LLC[2]    17
    Y[1]      LLC[3]    82
    Y[1]      LLC[4]    22
    Y[2]      OBJ       -1
    Y[2]      ULC[0]    57
    Y[2]      ULC[1]    26
    Y[2]      ULC[2]    63
    Y[2]      ULC[3]    28
    Y[2]      ULC[4]    53
    Y[2]      LLC[0]    5
    Y[2]      LLC[1]    87
    Y[2]      LLC[2]    10
    Y[2]      LLC[3]    14
    Y[2]      LLC[4]    70
    Y[3]      OBJ       29
    Y[3]      ULC[0]    27
    Y[3]      ULC[1]    27
    Y[3]      ULC[2]    51
    Y[3]      ULC[3]    8
    Y[3]      ULC[4]    4
    Y[3]      LLC[0]    70
    Y[3]      LLC[1]    79
    Y[3]      LLC[2]    26
    Y[3]      LLC[3]    84
    Y[3]      LLC[4]    4
    Y[4]      OBJ       46
    Y[4]      ULC[0]    30
    Y[4]      ULC[1]    12
    Y[4]      ULC[2]    82
    Y[4]      ULC[3]    14
    Y[4]      ULC[4]    79
    Y[4]      LLC[0]    13
    Y[4]      LLC[1]    15
    Y[4]      LLC[2]    93
    Y[4]      LLC[3]    66
    Y[4]      LLC[4]    63
    Y[5]      OBJ       -15
    Y[5]      ULC[0]    93
    Y[5]      ULC[1]    14
    Y[5]      ULC[2]    29
    Y[5]      ULC[3]    76
    Y[5]      ULC[4]    96
    Y[5]      LLC[0]    8
    Y[5]      LLC[1]    29
    Y[5]      LLC[2]    22
    Y[5]      LLC[3]    46
    Y[5]      LLC[4]    26
    Y[6]      OBJ       -47
    Y[6]      ULC[0]    66
    Y[6]      ULC[1]    87
    Y[6]      ULC[2]    1
    Y[6]      ULC[3]    41
    Y[6]      ULC[4]    9
    Y[6]      LLC[0]    53
    Y[6]      LLC[1]    62
    Y[6]      LLC[2]    26
    Y[6]      LLC[3]    81
    Y[6]      LLC[4]    34
    Y[7]      OBJ       48
    Y[7]      ULC[0]    100
    Y[7]      ULC[1]    49
    Y[7]      ULC[2]    11
    Y[7]      ULC[3]    51
    Y[7]      ULC[4]    48
    Y[7]      LLC[0]    42
    Y[7]      LLC[1]    82
    Y[7]      LLC[2]    63
    Y[7]      LLC[3]    67
    Y[7]      LLC[4]    22
    Y[8]      OBJ       -4
    Y[8]      ULC[0]    15
    Y[8]      ULC[1]    22
    Y[8]      ULC[2]    71
    Y[8]      ULC[3]    76
    Y[8]      ULC[4]    40
    Y[8]      LLC[0]    8
    Y[8]      LLC[1]    13
    Y[8]      LLC[2]    27
    Y[8]      LLC[3]    96
    Y[8]      LLC[4]    21
    Y[9]      OBJ       49
    Y[9]      ULC[0]    45
    Y[9]      ULC[1]    85
    Y[9]      ULC[2]    34
    Y[9]      ULC[3]    24
    Y[9]      ULC[4]    27
    Y[9]      LLC[0]    72
    Y[9]      LLC[1]    79
    Y[9]      LLC[2]    25
    Y[9]      LLC[3]    44
    Y[9]      LLC[4]    47
    MARKER    'MARKER'                 'INTEND'
RHS
    RHS1      ULC[0]    756
    RHS1      ULC[1]    603
    RHS1      ULC[2]    714
    RHS1      ULC[3]    708
    RHS1      ULC[4]    732
    RHS1      LLC[0]    681
    RHS1      LLC[1]    997
    RHS1      LLC[2]    633
    RHS1      LLC[3]    629
    RHS1      LLC[4]    519
BOUNDS
 BV BND1      X[0]    
 BV BND1      X[1]    
 BV BND1      X[2]    
 BV BND1      X[3]    
 BV BND1      X[4]    
 BV BND1      X[5]    
 BV BND1      X[6]    
 BV BND1      X[7]    
 BV BND1      X[8]    
 BV BND1      X[9]    
 BV BND1      Y[0]    
 BV BND1      Y[1]    
 BV BND1      Y[2]    
 BV BND1      Y[3]    
 BV BND1      Y[4]    
 BV BND1      Y[5]    
 BV BND1      Y[6]    
 BV BND1      Y[7]    
 BV BND1      Y[8]    
 BV BND1      Y[9]    
ENDATA
